StudentsNr = 10;
InstructorsNr = 26;
DaysNr = 1;
SlotsPerDay = 40;
AvailabilitySlotsLenght = 5;
RoomNr = 1;
ProgrammNr = 2;
DegreeNr = 1;
RolesNr = 3;
CoursesNr = 4;
InstructorsProgramm = [{1, 2}, {2}, {1}, {2}, {2}, {1, 2}, {1}, {1}, {2}, {1}, {1, 2}, {2}, {1}, {1}, {1}, {2}, {1, 2}, {1, 2}, {1, 2}, {1}, {2}, {1, 2}, {1}, {1, 2}, {1, 2}, {1}];
InstructorRolesPerProgramm = [|{1, 3, 6, 13, 18, 19, 20, 22, 24, 26}, {7, 8, 13, 14, 18, 19, 23}, {3, 7, 10, 11, 14, 18, 19, 22, 23, 24, 26}|{1, 2, 6, 12, 16, 18, 19, 22, 24}, {2, 5, 9, 12, 18, 19}, {2, 5, 11, 18, 19, 22, 24}|];
InstructorsAvailability = [|0, 1, 1, 1, 1, 1, 1, 1, |0, 0, 1, 1, 1, 1, 1, 1, |0, 1, 1, 1, 1, 1, 1, 1, |0, 0, 1, 1, 1, 1, 1, 1, |0, 0, 0, 0, 1, 1, 1, 0, |1, 1, 1, 1, 1, 1, 1, 1, |1, 1, 1, 1, 1, 1, 1, 1, |0, 0, 0, 0, 1, 1, 1, 1, |1, 1, 0, 1, 1, 0, 1, 0, |1, 1, 1, 1, 1, 1, 1, 1, |0, 1, 1, 1, 1, 1, 1, 1, |0, 1, 1, 0, 0, 1, 1, 1, |1, 1, 1, 1, 1, 1, 1, 1, |1, 1, 1, 1, 1, 1, 1, 1, |1, 1, 1, 1, 1, 1, 1, 1, |1, 0, 1, 1, 1, 1, 1, 1, |0, 0, 0, 1, 1, 1, 1, 1, |0, 1, 1, 1, 1, 1, 1, 1, |1, 1, 1, 0, 1, 0, 0, 1, |0, 0, 1, 1, 1, 1, 1, 0, |1, 1, 1, 1, 1, 1, 0, 0, |0, 1, 1, 1, 1, 1, 1, 1, |0, 1, 1, 1, 1, 1, 0, 0, |0, 1, 1, 1, 1, 1, 1, 0, |1, 1, 1, 1, 1, 1, 1, 1, |1, 1, 1, 1, 1, 1, 0, 0|];
StudentsProgramm = [1, 2, 1, 1, 2, 1, 1, 2, 2, 2];
StudentsDegree = [1, 1, 1, 1, 1, 1, 1, 1, 1, 1];
StudentsSupervisorId = [11, 11, 6, 15, 9, 26, 17, 5, 19, 18];
StudentsCourseIds = [{}, {}, {}, {}, {}, {}, {}, {}, {}, {}];
StudentsAvailability = [|0, 1, 1, 1, 1, 1, 1, 1, |0, 1, 1, 1, 1, 1, 1, 0, |0, 0, 0, 1, 1, 1, 1, 1, |0, 1, 1, 1, 1, 1, 1, 1, |0, 1, 1, 1, 1, 1, 1, 1, |0, 0, 0, 1, 1, 1, 1, 1, |0, 0, 1, 1, 1, 1, 1, 1, |1, 1, 1, 1, 1, 1, 1, 1, |0, 0, 1, 1, 1, 1, 1, 1, |1, 0, 0, 1, 1, 1, 1, 1|];
TheoryticalMinCard = [0, 0, 0, 1, 0, 0, 1, 0, 0, 0];
CoursesInstructorIds = [{1, 2, 3, 4, 5, 6, 7, 8, 10, 14, 17, 19, 20, 24, 25, 26}, {3, 5, 9, 11, 12, 14, 15, 17, 18, 19, 20, 21, 22, 23, 24, 25, 26}, {3, 16}, {1, 5, 6, 9, 10, 11, 12, 14, 15, 16, 18, 19, 20, 23, 24, 26}];
RolesDemands = [4, 5, 1];
RolesContinuity = [];
ExamLen = [2, 2, 2, 2, 2, 2, 2, 2, 2, 2];
LunchTsMinLen = 0;
LunchStarts = [12..27];
SupervisorAvailable = 5;
OptimalLunchLenght = [1, 3];
OptimalStartTs = [1, 0];
OptimalFinishTs = [0, 40];
MinimizeRooms = 100;
RolesSoftContinuity = [|1, 2, 3|2, 4, 0|];
SameDegreeInRoom = 20;
Mergeability = 1;
